978184
966899
966899
965127
947348
938019
926320
926320
926320
920319
920319
920319
912320
908904
908029
907275
893125
886253
885816
885816
884817
884817
877302
876137
876055
867265
867265
864463
864463
864463
863262
859336
856389
856389
855885
854028
853952
851801
845156
844120
834259
834259
834259
826522
826522
826522
826522
826522
826522
823782
823060
815573
814335
814246
814246
811408
811408
810111
808155
803390
803390
801322
801322
798604
793691
793691
790880
790880
790880
787736
787736
787305
786834
786834
784774
784774
784774
779066
776865
776865
773290
773290
772507
766434
765157
764839
764839
763075
757280
757280
757280
749287
749287
749287
749287
748860
747398
747398
742811
742811
